000 000 000 000 -99 -99 -99 -99 -99 -99 -99 -99 -99 000 -99 -99 -99 -99 -99 000 -99 000 -99 000 000 000 000 000 -99 -99 -99
-99 000 -99 000 000 000 -99 -99 -99 -99 -99 -99 -99 -99 000 000 -99 -99 -99 -99 -99 000 -99 -99 000 000 000 -99 -99 -99 -99
-99 000 000 -99 000 000 000 -99 -99 -99 -99 -99 -99 -99 000 000 -99 -99 -99 -99 -99 000 000 000 000 000 000 000 000 -99 -99
000 000 000 000 000 000 000 -99 -99 -99 -99 -99 000 -99 000 000 -99 -99 -99 -99 -99 -99 000 000 000 000 000 000 000 -99 -99
000 000 000 000 000 000 000 000 -99 -99 -99 -99 000 000 -99 000 000 -99 -99 -99 000 000 000 000 000 000 000 -99 -99 -99 -99
000 000 000 000 000 000 000 000 000 -99 -99 -99 000 000 -99 000 000 000 000 000 000 000 000 000 000 000 -99 -99 -99 -99 -99
000 000 000 000 000 000 000 000 000 000 -99 -99 -99 000 000 000 000 000 000 000 000 000 000 000 000 000 -99 -99 -99 -99 -99
000 000 000 000 000 000 000 000 000 000 -99 -99 -99 -99 -99 000 000 000 001 005 000 000 000 000 000 000 -99 -99 -99 000 000
000 000 000 000 000 000 000 000 000 000 -99 000 -99 -99 -99 -99 001 001 003 011 005 002 001 001 000 000 -99 -99 -99 000 000
000 000 000 000 000 000 000 000 000 000 000 000 -99 -99 000 000 002 002 006 013 024 017 005 017 002 001 000 -99 000 000 000
000 000 000 000 000 000 000 000 000 000 000 000 000 -99 000 000 001 002 012 011 042 037 016 092 013 002 000 -99 000 000 000
000 000 000 000 000 000 000 000 000 000 000 000 000 -99 000 000 001 002 005 012 042 058 066 078 019 004 000 000 000 000 000
000 000 000 000 000 000 000 000 000 000 000 000 000 -99 -99 000 000 001 004 010 010 056 118 065 044 019 001 000 000 000 000
000 000 000 000 000 000 000 -99 -99 -99 000 000 -99 -99 -99 000 000 000 002 005 003 010 012 022 024 018 002 000 -99 -99 000
000 000 000 000 000 000 -99 000 -99 -99 -99 -99 -99 -99 -99 -99 -99 000 001 001 001 002 004 004 008 007 002 000 -99 000 000
000 -99 000 000 000 000 -99 000 -99 -99 -99 -99 -99 000 -99 -99 -99 000 000 000 000 000 001 000 001 001 001 000 000 000 000
000 -99 -99 -99 000 000 000 000 000 -99 -99 -99 -99 000 -99 -99 -99 000 000 000 000 000 000 000 000 000 000 000 000 000 000
000 000 000 -99 -99 000 000 000 000 -99 -99 -99 -99 000 -99 -99 000 000 000 -99 000 000 000 000 000 000 000 000 000 000 000
000 000 000 000 -99 -99 000 000 000 -99 -99 -99 -99 -99 -99 -99 000 000 -99 -99 000 000 000 000 000 000 000 000 000 000 -99
000 000 000 000 -99 -99 000 000 000 000 -99 -99 -99 -99 -99 -99 000 000 -99 -99 -99 000 000 -99 -99 -99 -99 -99 -99 -99 -99
000 000 000 000 000 000 000 000 000 000 -99 -99 -99 -99 -99 -99 000 000 -99 -99 -99 -99 000 -99 -99 -99 -99 -99 -99 -99 -99
000 000 000 000 000 000 -99 000 000 000 -99 -99 -99 -99 -99 000 000 000 000 -99 -99 -99 000 -99 -99 -99 -99 -99 -99 -99 -99
000 000 000 000 000 000 000 000 000 000 -99 -99 -99 -99 000 000 000 000 000 -99 000 -99 000 -99 -99 -99 -99 -99 -99 -99 -99
000 000 000 000 000 000 000 000 000 000 -99 -99 -99 -99 000 000 000 000 000 -99 000 -99 000 -99 -99 -99 -99 -99 -99 -99 000
000 000 000 000 000 000 -99 000 000 000 000 -99 -99 -99 000 000 000 000 000 -99 000 -99 -99 -99 -99 -99 -99 -99 -99 -99 000
000 -99 -99 000 000 000 -99 -99 -99 000 000 -99 -99 000 000 000 000 000 000 -99 000 -99 -99 -99 -99 -99 -99 -99 -99 000 000
000 -99 -99 000 000 000 -99 -99 -99 000 -99 -99 -99 -99 -99 000 000 000 000 -99 -99 000 -99 -99 -99 -99 -99 -99 -99 000 000
000 000 000 000 000 000 000 -99 -99 -99 -99 -99 -99 -99 000 000 000 000 000 -99 -99 000 -99 -99 -99 -99 -99 -99 -99 -99 000
000 000 000 000 000 000 000 000 -99 000 -99 000 -99 -99 000 000 000 000 000 -99 -99 000 -99 -99 -99 -99 -99 -99 -99 -99 000
000 000 000 000 000 000 000 000 -99 000 000 000 000 000 000 000 000 000 -99 -99 -99 000 -99 -99 -99 -99 -99 -99 -99 -99 -99
000 000 000 000 000 000 000 000 000 000 000 -99 -99 000 000 000 000 000 000 -99 -99 000 -99 -99 -99 -99 000 -99 -99 -99 -99
000 000 000 000 000 000 000 000 000 -99 -99 -99 -99 000 -99 -99 000 000 000 -99 000 000 -99 000 000 000 000 -99 -99 -99 -99
000 000 000 000 000 000 000 000 000 -99 -99 -99 -99 -99 -99 -99 000 000 000 -99 000 000 -99 000 000 000 -99 -99 -99 -99 000
-99 000 000 000 000 000 000 000 -99 -99 -99 -99 -99 000 000 000 000 000 000 -99 -99 000 -99 000 000 000 000 000 000 -99 000
000 000 000 000 000 000 000 000 -99 000 -99 000 000 000 000 000 000 000 -99 -99 000 -99 -99 000 000 000 000 000 000 -99 000
000 000 -99 000 000 000 -99 000 000 000 000 000 000 000 000 000 000 000 -99 -99 000 000 -99 000 000 000 000 000 -99 -99 000
000 000 -99 000 000 -99 -99 000 000 000 000 -99 000 -99 000 000 000 000 -99 000 000 -99 000 000 000 000 000 000 -99 000 000
000 -99 -99 000 -99 -99 -99 -99 000 000 -99 -99 -99 -99 -99 000 000 000 000 -99 000 -99 000 000 000 000 000 -99 -99 -99 000
000 -99 -99 000 -99 -99 -99 -99 -99 000 -99 -99 -99 000 000 000 000 000 -99 -99 000 -99 000 000 000 -99 -99 -99 -99 -99 -99
000 -99 -99 000 -99 -99 -99 -99 -99 -99 -99 -99 000 000 000 000 000 000 -99 -99 -99 -99 000 000 -99 000 000 -99 -99 -99 -99
-99 000 -99 -99 -99 -99 -99 -99 -99 -99 000 000 000 000 000 000 000 -99 -99 -99 -99 -99 000 000 -99 -99 -99 -99 -99 -99 -99
000 000 -99 -99 -99 -99 -99 -99 -99 -99 000 000 000 000 000 -99 -99 -99 -99 000 -99 -99 000 -99 -99 -99 -99 -99 -99 -99 000
000 000 -99 -99 -99 -99 -99 -99 -99 000 000 000 000 -99 000 000 000 -99 -99 000 000 -99 -99 -99 -99 000 -99 -99 -99 -99 000
000 -99 -99 -99 -99 000 000 000 -99 000 000 000 000 000 000 000 000 -99 000 000 000 -99 -99 -99 000 000 -99 -99 -99 -99 000
000 -99 -99 -99 -99 -99 000 000 -99 -99 000 000 000 -99 000 000 -99 -99 000 000 000 -99 -99 -99 -99 -99 -99 -99 -99 -99 -99
-99 -99 -99 -99 -99 -99 -99 000 -99 -99 -99 000 000 -99 000 -99 -99 -99 000 000 -99 -99 -99 000 -99 -99 -99 -99 -99 -99 000
-99 -99 -99 -99 -99 -99 -99 -99 -99 -99 -99 000 000 -99 -99 -99 -99 -99 000 000 -99 -99 000 000 -99 -99 -99 -99 -99 -99 -99
-99 -99 -99 -99 -99 -99 -99 -99 -99 -99 -99 -99 -99 -99 -99 -99 -99 000 000 -99 -99 -99 000 -99 -99 -99 -99 -99 -99 -99 -99
-99 -99 -99 -99 -99 -99 -99 -99 -99 -99 -99 -99 -99 -99 -99 -99 -99 000 000 -99 -99 -99 000 -99 -99 -99 -99 -99 -99 -99 -99
-99 -99 -99 -99 -99 -99 -99 -99 -99 -99 -99 -99 -99 -99 -99 -99 -99 000 000 -99 -99 000 -99 -99 -99 -99 -99 -99 -99 -99 -99
-99 -99 -99 -99 -99 -99 -99 -99 -99 -99 -99 -99 -99 -99 -99 -99 000 000 -99 -99 -99 -99 -99 -99 -99 -99 -99 -99 -99 -99 -99
-99 -99 -99 -99 -99 -99 -99 -99 -99 -99 -99 -99 -99 -99 -99 -99 -99 000 -99 -99 -99 -99 -99 -99 -99 -99 -99 -99 -99 -99 -99
-99 -99 -99 -99 -99 -99 -99 -99 -99 -99 -99 -99 -99 -99 -99 -99 -99 -99 -99 -99 -99 -99 -99 -99 -99 -99 -99 -99 -99 -99 -99
-99 -99 -99 -99 -99 -99 -99 -99 -99 -99 -99 -99 -99 -99 -99 -99 -99 -99 -99 -99 -99 -99 -99 -99 -99 -99 -99 -99 -99 -99 -99
-99 -99 -99 -99 -99 -99 -99 -99 -99 -99 -99 -99 -99 -99 -99 -99 -99 -99 -99 -99 -99 -99 -99 -99 -99 -99 -99 -99 -99 -99 -99
